benchmarks_vrp/CMT4/fixed_c_size/CMT4_6.vrp
NAME: CMT4_6
TYPE: CVRP
COMMENT: 1028.42 - Cluster Nr.6
DIMENSION: 16
CAPACITY: 200
EDGE_WEIGHT_TYPE: EUC_2D
NODE_COORD_TYPE: TWOD_COORDS
NODE_COORD_SECTION: 
16 30 5
1 49 11
8 47 16
2 35 35
11 45 10
9 32 12
13 46 13
14 40 25
4 44 17
5 35 17
6 46 10
7 42 7
12 45 20
3 36 16
10 39 10
15 30 15
DEPOT_SECTION: 
2
-1
DEMAND_SECTION: 
15 16
10 10
12 11
2 0
7 5
3 10
5 7
8 25
9 7
14 9
4 9
11 18
16 8
13 8
1 18
6 23
EOF
