benchmarks_vrp/CMT4/fixed_c_size/CMT4_6.tour
NAME: CMT4_6 solution
TYPE: TOUR
TOUR_SECTION:
2 5 3 15 9 16 10 7 11 6 1 13 8 4 12 14 -1
-1
EOF